c turning on binary mode checking
c parsing input formula with 259840 variables and 1039934 clauses
c finished parsing, read 3165216 bytes from proof file
c detected empty clause; start verification via backward checking
c 646 of 1039934 clauses in core                            
c 147 of 125320 lemmas in core using 1582 resolution steps
c 0 RAT lemmas in core; 4 redundant literals in core lemmas
s VERIFIED
c verification time: 1.239 seconds
